c Choco 231113
v <instantiation id='sol1' type='solution' ><list>x[0] x[1] x[2] x[3] x[4] x[5] x[6] x[7] x[8] x[9] </list><values>6 9 7 2 8 3 1 4 10 5 </values></instantiation>

s SATISFIABLE
v <instantiation id='sol1' type='solution' ><list>x[0] x[1] x[2] x[3] x[4] x[5] x[6] x[7] x[8] x[9] </list><values>6 9 7 2 8 3 1 4 10 5 </values></instantiation>
d FOUND SOLUTIONS 1

